g3 1 1 0	# problem r1234yf
 2 0 14 0 0 	# vars, constraints, objectives, ranges, eqns
 0 13 0 0 0 0	# nonlinear constrs, objs; ccons: lin, nonlin, nd, nzlb
 0 0	# network constraints: nonlinear, linear
 0 2 0 	# nonlinear vars in constraints, objectives, both
 0 0 0 1	# linear network variables; functions; arith, flags
 0 0 0 0 0 	# discrete variables: binary, integer, nonlinear (b,c,o)
 0 20 	# nonzeros in Jacobian, obj. gradient
 0 0	# max name lengths: constraints, variables
 0 0 0 0 0	# common exprs: b,c,o,c1,o1
O0 0
o0
o54
5
o43
v0
o2
n3.0
o43
v1
o2
n8.65
o43
o0
o16
o44
o2
n-1.3918716868288703
v1
n1
o2
n9.75
o43
o0
o16
o44
o2
n-4.268044039690091
v1
n1
o2
n2.11
o43
o0
o16
o44
o2
n-12.233247247519369
v1
n1
n-12.081525543189
O1 0
o5
v0
n-1.0
O2 0
o16
o5
v0
n-2.0
O3 0
o0
o54
4
o2
n3.0
o5
v1
n-1.0
o2
o2
n41.61342938697839
o5
o0
o16
o44
o2
n-4.268044039690091
v1
n1.0
n-1.0
o44
o2
n-4.268044039690091
v1
o2
o2
n12.039690091069728
o5
o0
o16
o44
o2
n-1.3918716868288703
v1
n1.0
n-1.0
o44
o2
n-1.3918716868288703
v1
o2
o2
n25.812151692265868
o5
o0
o16
o44
o2
n-12.233247247519369
v1
n1.0
n-1.0
o44
o2
n-12.233247247519369
v1
n8.52896238365
O4 0
o54
7
o2
n-3.0
o5
v1
n-2.0
o2
o2
n-16.757703755954058
o5
o0
o16
o44
o2
n-1.3918716868288703
v1
n1.0
n-1.0
o44
o2
n-1.3918716868288703
v1
o2
o2
n-16.757703755954058
o5
o0
o16
o44
o2
n-1.3918716868288703
v1
n1.0
n-2.0
o44
o2
n-2.7837433736577406
v1
o2
o2
n-315.76643364196383
o5
o0
o16
o44
o2
n-12.233247247519369
v1
n1.0
n-1.0
o44
o2
n-12.233247247519369
v1
o2
o2
n-315.76643364196383
o5
o0
o16
o44
o2
n-12.233247247519369
v1
n1.0
n-2.0
o44
o2
n-24.466494495038738
v1
o2
o2
n-177.6079492661576
o5
o0
o16
o44
o2
n-4.268044039690091
v1
n1.0
n-1.0
o44
o2
n-4.268044039690091
v1
o2
o2
n-177.6079492661576
o5
o0
o16
o44
o2
n-4.268044039690091
v1
n1.0
n-2.0
o44
o2
n-8.536088079380182
v1
O5 0
o54
17
o2
o2
n0.0340387
o5
v0
n4
v1
o2
o2
n1.912859
v0
o5
v1
n0.222
o2
o2
n-2.1984719881617
v0
o5
v1
n0.61
o2
o2
n-0.8147645305033
o5
v0
n2
o5
v1
n1.122
o2
o2
n0.2288282
o5
v0
n3
o5
v1
n0.5
o2
o2
o2
n-1.65436
v0
o5
v1
n2.14
o44
o16
o5
v0
n2
o2
o2
o2
n-1.446628
o5
v0
n3
o5
v1
n2.284
o44
o16
o5
v0
n2
o2
o2
o2
n0.5961722
o5
v0
n2
o5
v1
n1.05
o44
o2
n-1.0
v0
o2
o2
o2
n-0.6148209
o5
v0
n2
o5
v1
n2.33
o44
o16
o5
v0
n2
o2
o2
o2
n-0.0180069
o5
v0
n7
o5
v1
n0.778
o44
o2
n-1.0
v0
o2
o2
o2
n0.2845275
v0
v1
o44
o0
o2
n-28.1
o5
o0
v0
n-0.96
n2
o2
n-1016.0
o5
o0
v1
n-1.061
n2
o2
o2
o2
n-0.3050809
v0
o5
v1
n2.0
o44
o0
o2
n-28.0
o5
o0
v0
n-0.96
n2
o2
n-1000.0
o5
o0
v1
n-1.062
n2
o2
o2
o2
n2.198935
v0
o5
v1
n1.236
o44
o0
o2
n-1.307
o5
o0
v0
n-0.853
n2
o2
n-1.16
o5
o0
v1
n-1.3
n2
o2
o2
o2
n-0.4270329
v0
o5
v1
n1.6
o44
o0
o2
n-1.96
o5
o0
v0
n-1.15
n2
o2
n-1.2
o5
o0
v1
n-1.04
n2
o2
o2
o2
n-0.4015581
v0
o5
v1
n1.85
o44
o0
o2
n-1.25
o5
o0
v0
n-1.3
n2
o2
n-1.26
o5
o0
v1
n-1.0
n2
o2
o2
o2
n0.1179587
v0
o5
v1
n0.7
o44
o0
o16
o5
o0
v0
n-1.5
n2
o2
n-1.6
o5
o0
v1
n-1.14
n2
o2
o2
o2
n-0.3141002
v0
o5
v1
n1.75
o44
o0
o2
n-2.2
o5
o0
v0
n-0.762
n2
o2
n-0.87
o5
o0
v1
n-1.1
n2
O6 0
o54
29
o2
n1.912859
o5
v1
n0.222
o2
n-2.1984719881617
o5
v1
n0.61
o2
o2
n0.6864846
o5
v0
n2.0
o5
v1
n0.5
o2
o2
n0.1179587
o5
v1
n0.7
o44
o0
o16
o5
o0
v0
n-1.5
n2.0
o2
n-1.6
o5
o0
v1
n-1.14
n2.0
o2
o2
n0.1361548
v1
o5
v0
n3.0
o2
o2
n2.198935
o5
v1
n1.236
o44
o0
o2
n-1.307
o5
o0
v0
n-0.853
n2.0
o2
n-1.16
o5
o0
v1
n-1.3
n2.0
o2
o2
n0.2845275
v1
o44
o0
o2
n-1016.0
o5
o0
v1
n-1.061
n2.0
o2
n-28.1
o5
o0
v0
n-0.96
n2.0
o2
o2
n-0.3050809
o5
v1
n2.0
o44
o0
o2
n-28.0
o5
o0
v0
n-0.96
n2.0
o2
n-1000.0
o5
o0
v1
n-1.062
n2.0
o2
o2
n-1.6295290610066
v0
o5
v1
n1.122
o2
o2
n-1.65436
o5
v1
n2.14
o44
o16
o5
v0
n2.0
o2
o2
n-0.3141002
o5
v1
n1.75
o44
o0
o2
n-2.2
o5
o0
v0
n-0.762
n2.0
o2
n-0.87
o5
o0
v1
n-1.1
n2.0
o2
o2
n-0.4015581
o5
v1
n1.85
o44
o0
o2
n-1.25
o5
o0
v0
n-1.3
n2.0
o2
n-1.26
o5
o0
v1
n-1.0
n2.0
o2
o2
n-0.4270329
o5
v1
n1.6
o44
o0
o2
n-1.96
o5
o0
v0
n-1.15
n2.0
o2
n-1.2
o5
o0
v1
n-1.04
n2.0
o2
o2
o2
n0.0180069
o5
v0
n7.0
o5
v1
n0.778
o44
o2
n-1.0
v0
o2
o2
o2
n1.1923444
v0
o5
v1
n1.05
o44
o2
n-1.0
v0
o2
o2
o2
n1.2296418
o5
v0
n3.0
o5
v1
n2.33
o44
o16
o5
v0
n2.0
o2
o2
o2
n2.893256
o5
v0
n4.0
o5
v1
n2.284
o44
o16
o5
v0
n2.0
o2
o2
o2
n3.30872
o5
v0
n2.0
o5
v1
n2.14
o44
o16
o5
v0
n2.0
o2
o2
o2
n-0.1260483
o5
v0
n6.0
o5
v1
n0.778
o44
o2
n-1.0
v0
o2
o2
o2
n-4.339884
o5
v0
n2.0
o5
v1
n2.284
o44
o16
o5
v0
n2.0
o2
o2
o2
n-0.5961722
o5
v0
n2.0
o5
v1
n1.05
o44
o2
n-1.0
v0
o2
o2
o2
n-1.2296418
v0
o5
v1
n2.33
o44
o16
o5
v0
n2.0
o2
o2
o2
o2
n0.1179587
v0
o5
v1
n0.7
o0
o2
n-2.0
v0
n3.0
o44
o0
o16
o5
o0
v0
n-1.5
n2.0
o2
n-1.6
o5
o0
v1
n-1.14
n2.0
o2
o2
o2
o2
n2.198935
v0
o5
v1
n1.236
o0
o2
n-2.614
v0
n2.229742
o44
o0
o2
n-1.307
o5
o0
v0
n-0.853
n2.0
o2
n-1.16
o5
o0
v1
n-1.3
n2.0
o2
o2
o2
o2
n0.2845275
v0
v1
o0
o2
n-56.2
v0
n53.952
o44
o0
o2
n-1016.0
o5
o0
v1
n-1.061
n2.0
o2
n-28.1
o5
o0
v0
n-0.96
n2.0
o2
o2
o2
o2
n-0.3050809
v0
o5
v1
n2.0
o0
o2
n-56.0
v0
n53.76
o44
o0
o2
n-28.0
o5
o0
v0
n-0.96
n2.0
o2
n-1000.0
o5
o0
v1
n-1.062
n2.0
o2
o2
o2
o2
n-0.3141002
v0
o5
v1
n1.75
o0
o2
n-4.4
v0
n3.3528000000000002
o44
o0
o2
n-2.2
o5
o0
v0
n-0.762
n2.0
o2
n-0.87
o5
o0
v1
n-1.1
n2.0
o2
o2
o2
o2
n-0.4015581
v0
o5
v1
n1.85
o0
o2
n-2.5
v0
n3.25
o44
o0
o2
n-1.25
o5
o0
v0
n-1.3
n2.0
o2
n-1.26
o5
o0
v1
n-1.0
n2.0
o2
o2
o2
o2
n-0.4270329
v0
o5
v1
n1.6
o0
o2
n-3.92
v0
n4.508
o44
o0
o2
n-1.96
o5
o0
v0
n-1.15
n2.0
o2
n-1.2
o5
o0
v1
n-1.04
n2.0
O7 0
o54
46
o2
n-1.6295290610066
o5
v1
n1.122
o2
o2
n1.3729692
o5
v1
n0.5
v0
o2
o2
n0.40846439999999995
v1
o5
v0
n2.0
o2
o2
n1.1923444
o5
v1
n1.05
o44
o2
n-1.0
v0
o2
o2
n-1.2296418
o5
v1
n2.33
o44
o16
o5
v0
n2.0
o2
o2
o2
n20.252792
o5
v1
n2.284
o5
v0
n3.0
o44
o16
o5
v0
n2.0
o2
o2
o2
n0.2520966
o5
v1
n0.778
o5
v0
n6.0
o44
o2
n-1.0
v0
o2
o2
o2
n17.0845304
v0
o5
v1
n2.0
o44
o0
o2
n-28.0
o5
o0
v0
n-0.96
n2.0
o2
n-1000.0
o5
o0
v1
n-1.062
n2.0
o2
o2
o2
n17.0845304
o5
v1
n2.0
o0
v0
n-0.96
o44
o0
o2
n-28.0
o5
o0
v0
n-0.96
n2.0
o2
n-1000.0
o5
o0
v1
n-1.062
n2.0
o2
o2
o2
n0.5961722
o5
v1
n1.05
o5
v0
n2.0
o44
o2
n-1.0
v0
o2
o2
o2
n9.92616
o5
v1
n2.14
v0
o44
o16
o5
v0
n2.0
o2
o2
o2
n6.148209
o5
v1
n2.33
o5
v0
n2.0
o44
o16
o5
v0
n2.0
o2
o2
o2
n0.1179587
o5
v1
n0.7
o0
o2
n-2.0
v0
n3.0
o44
o0
o16
o5
o0
v0
n-1.5
n2.0
o2
n-1.6
o5
o0
v1
n-1.14
n2.0
o2
o2
o2
n1.00389525
v0
o5
v1
n1.85
o44
o0
o2
n-1.25
o5
o0
v0
n-1.3
n2.0
o2
n-1.26
o5
o0
v1
n-1.0
n2.0
o2
o2
o2
n1.00389525
o5
v1
n1.85
o0
v0
n-1.3
o44
o0
o2
n-1.25
o5
o0
v0
n-1.3
n2.0
o2
n-1.26
o5
o0
v1
n-1.0
n2.0
o2
o2
o2
n2.198935
o5
v1
n1.236
o0
o2
n-2.614
v0
n2.229742
o44
o0
o2
n-1.307
o5
o0
v0
n-0.853
n2.0
o2
n-1.16
o5
o0
v1
n-1.3
n2.0
o2
o2
o2
n0.2845275
v1
o0
o2
n-56.2
v0
n53.952
o44
o0
o2
n-1016.0
o5
o0
v1
n-1.061
n2.0
o2
n-28.1
o5
o0
v0
n-0.96
n2.0
o2
o2
o2
n1.3820408800000001
v0
o5
v1
n1.75
o44
o0
o2
n-2.2
o5
o0
v0
n-0.762
n2.0
o2
n-0.87
o5
o0
v1
n-1.1
n2.0
o2
o2
o2
n1.3820408800000001
o5
v1
n1.75
o0
v0
n-0.762
o44
o0
o2
n-2.2
o5
o0
v0
n-0.762
n2.0
o2
n-0.87
o5
o0
v1
n-1.1
n2.0
o2
o2
o2
n1.6739689679999998
v0
o5
v1
n1.6
o44
o0
o2
n-1.96
o5
o0
v0
n-1.15
n2.0
o2
n-1.2
o5
o0
v1
n-1.04
n2.0
o2
o2
o2
n1.6739689679999998
o5
v1
n1.6
o0
v0
n-1.15
o44
o0
o2
n-1.96
o5
o0
v0
n-1.15
n2.0
o2
n-1.2
o5
o0
v1
n-1.04
n2.0
o2
o2
o2
n-5.74801609
v0
o5
v1
n1.236
o44
o0
o2
n-1.307
o5
o0
v0
n-0.853
n2.0
o2
n-1.16
o5
o0
v1
n-1.3
n2.0
o2
o2
o2
n-5.74801609
o5
v1
n1.236
o0
v0
n-0.853
o44
o0
o2
n-1.307
o5
o0
v0
n-0.853
n2.0
o2
n-1.16
o5
o0
v1
n-1.3
n2.0
o2
o2
o2
n-15.9904455
v1
v0
o44
o0
o2
n-1016.0
o5
o0
v1
n-1.061
n2.0
o2
n-28.1
o5
o0
v0
n-0.96
n2.0
o2
o2
o2
n-15.9904455
v1
o0
v0
n-0.96
o44
o0
o2
n-1016.0
o5
o0
v1
n-1.061
n2.0
o2
n-28.1
o5
o0
v0
n-0.96
n2.0
o2
o2
o2
n-8.679768
o5
v1
n2.284
v0
o44
o16
o5
v0
n2.0
o2
o2
o2
n-0.0180069
o5
v1
n0.778
o5
v0
n7.0
o44
o2
n-1.0
v0
o2
o2
o2
n-1.1923444
v0
o5
v1
n1.05
o44
o2
n-1.0
v0
o2
o2
o2
n-1.1923444
o5
v1
n1.05
v0
o44
o2
n-1.0
v0
o2
o2
o2
n-0.3050809
o5
v1
n2.0
o0
o2
n-56.0
v0
n53.76
o44
o0
o2
n-28.0
o5
o0
v0
n-0.96
n2.0
o2
n-1000.0
o5
o0
v1
n-1.062
n2.0
o2
o2
o2
n-2.4592836
o5
v1
n2.33
o5
v0
n4.0
o44
o16
o5
v0
n2.0
o2
o2
o2
n-5.786512
o5
v1
n2.284
o5
v0
n5.0
o44
o16
o5
v0
n2.0
o2
o2
o2
n-0.7562898
o5
v1
n0.778
o5
v0
n5.0
o44
o2
n-1.0
v0
o2
o2
o2
n-6.61744
o5
v1
n2.14
o5
v0
n3.0
o44
o16
o5
v0
n2.0
o2
o2
o2
n-0.2359174
v0
o5
v1
n0.7
o44
o0
o16
o5
o0
v0
n-1.5
n2.0
o2
n-1.6
o5
o0
v1
n-1.14
n2.0
o2
o2
o2
n-0.2359174
o5
v1
n0.7
o0
v0
n-1.5
o44
o0
o16
o5
o0
v0
n-1.5
n2.0
o2
n-1.6
o5
o0
v1
n-1.14
n2.0
o2
o2
o2
n-0.3141002
o5
v1
n1.75
o0
o2
n-4.4
v0
n3.3528000000000002
o44
o0
o2
n-2.2
o5
o0
v0
n-0.762
n2.0
o2
n-0.87
o5
o0
v1
n-1.1
n2.0
o2
o2
o2
n-0.4015581
o5
v1
n1.85
o0
o2
n-2.5
v0
n3.25
o44
o0
o2
n-1.25
o5
o0
v0
n-1.3
n2.0
o2
n-1.26
o5
o0
v1
n-1.0
n2.0
o2
o2
o2
n-0.4270329
o5
v1
n1.6
o0
o2
n-3.92
v0
n4.508
o44
o0
o2
n-1.96
o5
o0
v0
n-1.15
n2.0
o2
n-1.2
o5
o0
v1
n-1.04
n2.0
o2
o2
o2
o2
o2
n17.0845304
v0
o5
v1
n2.0
o0
v0
n-0.96
o0
o2
n-56.0
v0
n53.76
o44
o0
o2
n-28.0
o5
o0
v0
n-0.96
n2.0
o2
n-1000.0
o5
o0
v1
n-1.062
n2.0
o2
o2
o2
o2
o2
n1.00389525
v0
o5
v1
n1.85
o0
v0
n-1.3
o0
o2
n-2.5
v0
n3.25
o44
o0
o2
n-1.25
o5
o0
v0
n-1.3
n2.0
o2
n-1.26
o5
o0
v1
n-1.0
n2.0
o2
o2
o2
o2
o2
n1.3820408800000001
v0
o5
v1
n1.75
o0
v0
n-0.762
o0
o2
n-4.4
v0
n3.3528000000000002
o44
o0
o2
n-2.2
o5
o0
v0
n-0.762
n2.0
o2
n-0.87
o5
o0
v1
n-1.1
n2.0
o2
o2
o2
o2
o2
n1.6739689679999998
v0
o5
v1
n1.6
o0
v0
n-1.15
o0
o2
n-3.92
v0
n4.508
o44
o0
o2
n-1.96
o5
o0
v0
n-1.15
n2.0
o2
n-1.2
o5
o0
v1
n-1.04
n2.0
o2
o2
o2
o2
o2
n-5.74801609
v0
o5
v1
n1.236
o0
v0
n-0.853
o0
o2
n-2.614
v0
n2.229742
o44
o0
o2
n-1.307
o5
o0
v0
n-0.853
n2.0
o2
n-1.16
o5
o0
v1
n-1.3
n2.0
o2
o2
o2
o2
o2
n-15.9904455
v1
v0
o0
v0
n-0.96
o0
o2
n-56.2
v0
n53.952
o44
o0
o2
n-1016.0
o5
o0
v1
n-1.061
n2.0
o2
n-28.1
o5
o0
v0
n-0.96
n2.0
o2
o2
o2
o2
o2
n-0.2359174
v0
o5
v1
n0.7
o0
v0
n-1.5
o0
o2
n-2.0
v0
n3.0
o44
o0
o16
o5
o0
v0
n-1.5
n2.0
o2
n-1.6
o5
o0
v1
n-1.14
n2.0
O8 0
o54
24
o2
n0.0340387
o5
v0
n4.0
o2
o2
n0.424654698
v0
o5
v1
n-0.778
o2
o2
n0.2845275
v0
o44
o0
o2
n-1016.0
o5
o0
v1
n-1.061
n2.0
o2
n-28.1
o5
o0
v0
n-0.96
n2.0
o2
o2
n0.1144141
o5
v0
n3.0
o5
v1
n-0.5
o2
o2
n-0.9141658032247026
o5
v0
n2.0
o5
v1
n0.12200000000000011
o2
o2
n-1.3410679127786371
v0
o5
v1
n-0.39
o2
o2
o2
n2.71788366
v0
o5
v1
n0.236
o44
o0
o2
n-1.307
o5
o0
v0
n-0.853
n2.0
o2
n-1.16
o5
o0
v1
n-1.3
n2.0
o2
o2
o2
n0.62598081
o5
v0
n2.0
o5
v1
n0.050000000000000044
o44
o2
n-1.0
v0
o2
o2
o2
n0.08257109
v0
o5
v1
n-0.30000000000000004
o44
o0
o16
o5
o0
v0
n-1.5
n2.0
o2
n-1.6
o5
o0
v1
n-1.14
n2.0
o2
o2
o2
n-0.6832526400000001
v0
o5
v1
n0.6000000000000001
o44
o0
o2
n-1.96
o5
o0
v0
n-1.15
n2.0
o2
n-1.2
o5
o0
v1
n-1.04
n2.0
o2
o2
o2
n-0.742882485
v0
o5
v1
n0.8500000000000001
o44
o0
o2
n-1.25
o5
o0
v0
n-1.3
n2.0
o2
n-1.26
o5
o0
v1
n-1.0
n2.0
o2
o2
o2
n-1.432532697
o5
v0
n2.0
o5
v1
n1.33
o44
o16
o5
v0
n2.0
o2
o2
o2
n-3.5403304
v0
o5
v1
n1.1400000000000001
o44
o16
o5
v0
n2.0
o2
o2
o2
n-0.54967535
v0
o5
v1
n0.75
o44
o0
o2
n-2.2
o5
o0
v0
n-0.762
n2.0
o2
n-0.87
o5
o0
v1
n-1.1
n2.0
o2
o2
o2
n-0.6101618
v0
v1
o44
o0
o2
n-28.0
o5
o0
v0
n-0.96
n2.0
o2
n-1000.0
o5
o0
v1
n-1.062
n2.0
o2
o2
o2
n-3.3040983519999996
o5
v0
n3.0
o5
v1
n1.2839999999999998
o44
o16
o5
v0
n2.0
o2
o2
o2
n-0.0140093682
o5
v0
n7.0
o5
v1
n-0.22199999999999998
o44
o2
n-1.0
v0
o2
o2
o2
o2
n0.1179587
v0
o5
v1
n0.7
o0
o2
n-3.2
v1
n3.6479999999999997
o44
o0
o16
o5
o0
v0
n-1.5
n2.0
o2
n-1.6
o5
o0
v1
n-1.14
n2.0
o2
o2
o2
o2
n2.198935
v0
o5
v1
n1.236
o0
o2
n-2.32
v1
n3.016
o44
o0
o2
n-1.307
o5
o0
v0
n-0.853
n2.0
o2
n-1.16
o5
o0
v1
n-1.3
n2.0
o2
o2
o2
o2
n0.2845275
v0
v1
o0
o2
n-2032.0
v1
n2155.9519999999998
o44
o0
o2
n-1016.0
o5
o0
v1
n-1.061
n2.0
o2
n-28.1
o5
o0
v0
n-0.96
n2.0
o2
o2
o2
o2
n-0.3050809
v0
o5
v1
n2.0
o0
o2
n-2000.0
v1
n2124.0
o44
o0
o2
n-28.0
o5
o0
v0
n-0.96
n2.0
o2
n-1000.0
o5
o0
v1
n-1.062
n2.0
o2
o2
o2
o2
n-0.3141002
v0
o5
v1
n1.75
o0
o2
n-1.74
v1
n1.9140000000000001
o44
o0
o2
n-2.2
o5
o0
v0
n-0.762
n2.0
o2
n-0.87
o5
o0
v1
n-1.1
n2.0
o2
o2
o2
o2
n-0.4015581
v0
o5
v1
n1.85
o0
o2
n-2.52
v1
n2.52
o44
o0
o2
n-1.25
o5
o0
v0
n-1.3
n2.0
o2
n-1.26
o5
o0
v1
n-1.0
n2.0
o2
o2
o2
o2
n-0.4270329
v0
o5
v1
n1.6
o0
o2
n-2.4
v1
n2.496
o44
o0
o2
n-1.96
o5
o0
v0
n-1.15
n2.0
o2
n-1.2
o5
o0
v1
n-1.04
n2.0
O9 0
o54
43
o2
o2
n0.5230164859836685
v0
o5
v1
n-1.3900000000000001
o2
o2
n-0.330381355044
v0
o5
v1
n-1.778
o2
o2
n-0.6101618
v0
o44
o0
o2
n-28.0
o5
o0
v0
n-0.96
n2.0
o2
n-1000.0
o5
o0
v1
n-1.062
n2.0
o2
o2
n-0.11152822799341382
o5
v0
n2.0
o5
v1
n-0.8779999999999999
o2
o2
n-0.05720705
o5
v0
n3.0
o5
v1
n-1.5
o2
o2
o2
n0.0031100797404
o5
v0
n7.0
o5
v1
n-1.222
o44
o2
n-1.0
v0
o2
o2
o2
n0.03129904050000003
o5
v0
n2.0
o5
v1
n-0.95
o44
o2
n-1.0
v0
o2
o2
o2
n0.546534348
v0
o5
v1
n1.75
o44
o0
o2
n-2.2
o5
o0
v0
n-0.762
n2.0
o2
n-0.87
o5
o0
v1
n-1.1
n2.0
o2
o2
o2
n0.64142054376
v0
o5
v1
n-0.764
o44
o0
o2
n-1.307
o5
o0
v0
n-0.853
n2.0
o2
n-1.16
o5
o0
v1
n-1.3
n2.0
o2
o2
o2
n1.011926412
v0
o5
v1
n1.85
o44
o0
o2
n-1.25
o5
o0
v0
n-1.3
n2.0
o2
n-1.26
o5
o0
v1
n-1.0
n2.0
o2
o2
o2
n1.02487896
v0
o5
v1
n1.6
o44
o0
o2
n-1.96
o5
o0
v0
n-1.15
n2.0
o2
n-1.2
o5
o0
v1
n-1.04
n2.0
o2
o2
o2
n0.2845275
v0
o0
o2
n-2032.0
v1
n2155.9519999999998
o44
o0
o2
n-1016.0
o5
o0
v1
n-1.061
n2.0
o2
n-28.1
o5
o0
v0
n-0.96
n2.0
o2
o2
o2
n610.1618
v0
o5
v1
n2.0
o44
o0
o2
n-28.0
o5
o0
v0
n-0.96
n2.0
o2
n-1000.0
o5
o0
v1
n-1.062
n2.0
o2
o2
o2
n-0.37746784
v0
o5
v1
n0.7
o44
o0
o16
o5
o0
v0
n-1.5
n2.0
o2
n-1.6
o5
o0
v1
n-1.14
n2.0
o2
o2
o2
n-4.242462283967999
o5
v0
n3.0
o5
v1
n0.2839999999999998
o44
o16
o5
v0
n2.0
o2
o2
o2
n-0.63145011225
v0
o5
v1
n-0.1499999999999999
o44
o0
o2
n-1.25
o5
o0
v0
n-1.3
n2.0
o2
n-1.26
o5
o0
v1
n-1.0
n2.0
o2
o2
o2
n-0.4099515840000001
v0
o5
v1
n-0.3999999999999999
o44
o0
o2
n-1.96
o5
o0
v0
n-1.15
n2.0
o2
n-1.2
o5
o0
v1
n-1.04
n2.0
o2
o2
o2
n-4.035976656000001
v0
o5
v1
n0.14000000000000012
o44
o16
o5
v0
n2.0
o2
o2
o2
n-578.1598799999999
v0
v1
o44
o0
o2
n-1016.0
o5
o0
v1
n-1.061
n2.0
o2
n-28.1
o5
o0
v0
n-0.96
n2.0
o2
o2
o2
n-578.1598799999999
v0
o0
v1
n-1.061
o44
o0
o2
n-1016.0
o5
o0
v1
n-1.061
n2.0
o2
n-28.1
o5
o0
v0
n-0.96
n2.0
o2
o2
o2
n-5.1015292
v0
o5
v1
n1.236
o44
o0
o2
n-1.307
o5
o0
v0
n-0.853
n2.0
o2
n-1.16
o5
o0
v1
n-1.3
n2.0
o2
o2
o2
n-0.024771327000000003
v0
o5
v1
n-1.3
o44
o0
o16
o5
o0
v0
n-1.5
n2.0
o2
n-1.6
o5
o0
v1
n-1.14
n2.0
o2
o2
o2
n-1.9052684870100003
o5
v0
n2.0
o5
v1
n0.33000000000000007
o44
o16
o5
v0
n2.0
o2
o2
o2
n-0.4122565125
v0
o5
v1
n-0.25
o44
o0
o2
n-2.2
o5
o0
v0
n-0.762
n2.0
o2
n-0.87
o5
o0
v1
n-1.1
n2.0
o2
o2
o2
o2
n0.9564351090000001
v0
o5
v1
n0.75
o0
v1
n-1.1
o44
o0
o2
n-2.2
o5
o0
v0
n-0.762
n2.0
o2
n-0.87
o5
o0
v1
n-1.1
n2.0
o2
o2
o2
o2
n2.71788366
v0
o5
v1
n0.236
o0
o2
n-2.32
v1
n3.016
o44
o0
o2
n-1.307
o5
o0
v0
n-0.853
n2.0
o2
n-1.16
o5
o0
v1
n-1.3
n2.0
o2
o2
o2
o2
n1220.3236
v0
v1
o0
v1
n-1.062
o44
o0
o2
n-28.0
o5
o0
v0
n-0.96
n2.0
o2
n-1000.0
o5
o0
v1
n-1.062
n2.0
o2
o2
o2
o2
n0.08257109
v0
o5
v1
n-0.30000000000000004
o0
o2
n-3.2
v1
n3.6479999999999997
o44
o0
o16
o5
o0
v0
n-1.5
n2.0
o2
n-1.6
o5
o0
v1
n-1.14
n2.0
o2
o2
o2
o2
n1.6398063360000001
v0
o5
v1
n0.6000000000000001
o0
v1
n-1.04
o44
o0
o2
n-1.96
o5
o0
v0
n-1.15
n2.0
o2
n-1.2
o5
o0
v1
n-1.04
n2.0
o2
o2
o2
o2
n1.8720638621999999
v0
o5
v1
n0.8500000000000001
o0
v1
n-1.0
o44
o0
o2
n-1.25
o5
o0
v0
n-1.3
n2.0
o2
n-1.26
o5
o0
v1
n-1.0
n2.0
o2
o2
o2
o2
n-6.305490091199999
v0
o5
v1
n0.236
o0
v1
n-1.3
o44
o0
o2
n-1.307
o5
o0
v0
n-0.853
n2.0
o2
n-1.16
o5
o0
v1
n-1.3
n2.0
o2
o2
o2
o2
n-0.6832526400000001
v0
o5
v1
n0.6000000000000001
o0
o2
n-2.4
v1
n2.496
o44
o0
o2
n-1.96
o5
o0
v0
n-1.15
n2.0
o2
n-1.2
o5
o0
v1
n-1.04
n2.0
o2
o2
o2
o2
n-0.742882485
v0
o5
v1
n0.8500000000000001
o0
o2
n-2.52
v1
n2.52
o44
o0
o2
n-1.25
o5
o0
v0
n-1.3
n2.0
o2
n-1.26
o5
o0
v1
n-1.0
n2.0
o2
o2
o2
o2
n-0.54967535
v0
o5
v1
n0.75
o0
o2
n-1.74
v1
n1.9140000000000001
o44
o0
o2
n-2.2
o5
o0
v0
n-0.762
n2.0
o2
n-0.87
o5
o0
v1
n-1.1
n2.0
o2
o2
o2
o2
n-0.6101618
v0
v1
o0
o2
n-2000.0
v1
n2124.0
o44
o0
o2
n-28.0
o5
o0
v0
n-0.96
n2.0
o2
n-1000.0
o5
o0
v1
n-1.062
n2.0
o2
o2
o2
o2
n-0.264227488
v0
o5
v1
n-0.30000000000000004
o0
v1
n-1.14
o44
o0
o16
o5
o0
v0
n-1.5
n2.0
o2
n-1.6
o5
o0
v1
n-1.14
n2.0
o2
o2
o2
o2
o2
n0.546534348
v0
o5
v1
n1.75
o0
v1
n-1.1
o0
o2
n-1.74
v1
n1.9140000000000001
o44
o0
o2
n-2.2
o5
o0
v0
n-0.762
n2.0
o2
n-0.87
o5
o0
v1
n-1.1
n2.0
o2
o2
o2
o2
o2
n1.011926412
v0
o5
v1
n1.85
o0
v1
n-1.0
o0
o2
n-2.52
v1
n2.52
o44
o0
o2
n-1.25
o5
o0
v0
n-1.3
n2.0
o2
n-1.26
o5
o0
v1
n-1.0
n2.0
o2
o2
o2
o2
o2
n1.02487896
v0
o5
v1
n1.6
o0
v1
n-1.04
o0
o2
n-2.4
v1
n2.496
o44
o0
o2
n-1.96
o5
o0
v0
n-1.15
n2.0
o2
n-1.2
o5
o0
v1
n-1.04
n2.0
o2
o2
o2
o2
o2
n610.1618
v0
o5
v1
n2.0
o0
v1
n-1.062
o0
o2
n-2000.0
v1
n2124.0
o44
o0
o2
n-28.0
o5
o0
v0
n-0.96
n2.0
o2
n-1000.0
o5
o0
v1
n-1.062
n2.0
o2
o2
o2
o2
o2
n-0.37746784
v0
o5
v1
n0.7
o0
v1
n-1.14
o0
o2
n-3.2
v1
n3.6479999999999997
o44
o0
o16
o5
o0
v0
n-1.5
n2.0
o2
n-1.6
o5
o0
v1
n-1.14
n2.0
o2
o2
o2
o2
o2
n-578.1598799999999
v0
v1
o0
v1
n-1.061
o0
o2
n-2032.0
v1
n2155.9519999999998
o44
o0
o2
n-1016.0
o5
o0
v1
n-1.061
n2.0
o2
n-28.1
o5
o0
v0
n-0.96
n2.0
o2
o2
o2
o2
o2
n-5.1015292
v0
o5
v1
n1.236
o0
v1
n-1.3
o0
o2
n-2.32
v1
n3.016
o44
o0
o2
n-1.307
o5
o0
v0
n-0.853
n2.0
o2
n-1.16
o5
o0
v1
n-1.3
n2.0
O10 0
o54
43
o2
n0.424654698
o5
v1
n-0.778
o2
n0.1361548
o5
v0
n3.0
o2
n0.2845275
o44
o0
o2
n-1016.0
o5
o0
v1
n-1.061
n2.0
o2
n-28.1
o5
o0
v0
n-0.96
n2.0
o2
n-1.3410679127786371
o5
v1
n-0.39
o2
o2
n0.3432423
o5
v1
n-0.5
o5
v0
n2.0
o2
o2
n2.71788366
o5
v1
n0.236
o44
o0
o2
n-1.307
o5
o0
v0
n-0.853
n2.0
o2
n-1.16
o5
o0
v1
n-1.3
n2.0
o2
o2
n0.08257109
o5
v1
n-0.30000000000000004
o44
o0
o16
o5
o0
v0
n-1.5
n2.0
o2
n-1.6
o5
o0
v1
n-1.14
n2.0
o2
o2
n-0.6832526400000001
o5
v1
n0.6000000000000001
o44
o0
o2
n-1.96
o5
o0
v0
n-1.15
n2.0
o2
n-1.2
o5
o0
v1
n-1.04
n2.0
o2
o2
n-0.742882485
o5
v1
n0.8500000000000001
o44
o0
o2
n-1.25
o5
o0
v0
n-1.3
n2.0
o2
n-1.26
o5
o0
v1
n-1.0
n2.0
o2
o2
n-3.5403304
o5
v1
n1.1400000000000001
o44
o16
o5
v0
n2.0
o2
o2
n-0.54967535
o5
v1
n0.75
o44
o0
o2
n-2.2
o5
o0
v0
n-0.762
n2.0
o2
n-0.87
o5
o0
v1
n-1.1
n2.0
o2
o2
n-0.6101618
v1
o44
o0
o2
n-28.0
o5
o0
v0
n-0.96
n2.0
o2
n-1000.0
o5
o0
v1
n-1.062
n2.0
o2
o2
n-1.8283316064494053
v0
o5
v1
n0.12200000000000011
o2
o2
o2
n2.865065394
o5
v1
n1.33
o5
v0
n3.0
o44
o16
o5
v0
n2.0
o2
o2
o2
n7.0806608
o5
v1
n1.1400000000000001
o5
v0
n2.0
o44
o16
o5
v0
n2.0
o2
o2
o2
n0.546534348
o5
v1
n1.75
o0
v1
n-1.1
o44
o0
o2
n-2.2
o5
o0
v0
n-0.762
n2.0
o2
n-0.87
o5
o0
v1
n-1.1
n2.0
o2
o2
o2
n6.608196703999999
o5
v1
n1.2839999999999998
o5
v0
n4.0
o44
o16
o5
v0
n2.0
o2
o2
o2
n0.0140093682
o5
v1
n-0.22199999999999998
o5
v0
n7.0
o44
o2
n-1.0
v0
o2
o2
o2
n1.011926412
o5
v1
n1.85
o0
v1
n-1.0
o44
o0
o2
n-1.25
o5
o0
v0
n-1.3
n2.0
o2
n-1.26
o5
o0
v1
n-1.0
n2.0
o2
o2
o2
n1.02487896
o5
v1
n1.6
o0
v1
n-1.04
o44
o0
o2
n-1.96
o5
o0
v0
n-1.15
n2.0
o2
n-1.2
o5
o0
v1
n-1.04
n2.0
o2
o2
o2
n0.2845275
v0
o0
o2
n-56.2
v0
n53.952
o44
o0
o2
n-1016.0
o5
o0
v1
n-1.061
n2.0
o2
n-28.1
o5
o0
v0
n-0.96
n2.0
o2
o2
o2
n610.1618
o5
v1
n2.0
o0
v1
n-1.062
o44
o0
o2
n-28.0
o5
o0
v0
n-0.96
n2.0
o2
n-1000.0
o5
o0
v1
n-1.062
n2.0
o2
o2
o2
n1.25196162
v0
o5
v1
n0.050000000000000044
o44
o2
n-1.0
v0
o2
o2
o2
n-0.37746784
o5
v1
n0.7
o0
v1
n-1.14
o44
o0
o16
o5
o0
v0
n-1.5
n2.0
o2
n-1.6
o5
o0
v1
n-1.14
n2.0
o2
o2
o2
n-9.912295055999998
o5
v1
n1.2839999999999998
o5
v0
n2.0
o44
o16
o5
v0
n2.0
o2
o2
o2
n-2.865065394
v0
o5
v1
n1.33
o44
o16
o5
v0
n2.0
o2
o2
o2
n-578.1598799999999
v1
o0
v1
n-1.061
o44
o0
o2
n-1016.0
o5
o0
v1
n-1.061
n2.0
o2
n-28.1
o5
o0
v0
n-0.96
n2.0
o2
o2
o2
n-5.1015292
o5
v1
n1.236
o0
v1
n-1.3
o44
o0
o2
n-1.307
o5
o0
v0
n-0.853
n2.0
o2
n-1.16
o5
o0
v1
n-1.3
n2.0
o2
o2
o2
n-0.62598081
o5
v1
n0.050000000000000044
o5
v0
n2.0
o44
o2
n-1.0
v0
o2
o2
o2
n-0.0980655774
o5
v1
n-0.22199999999999998
o5
v0
n6.0
o44
o2
n-1.0
v0
o2
o2
o2
o2
n2.71788366
v0
o5
v1
n0.236
o0
o2
n-2.614
v0
n2.229742
o44
o0
o2
n-1.307
o5
o0
v0
n-0.853
n2.0
o2
n-1.16
o5
o0
v1
n-1.3
n2.0
o2
o2
o2
o2
n0.08257109
v0
o5
v1
n-0.30000000000000004
o0
o2
n-2.0
v0
n3.0
o44
o0
o16
o5
o0
v0
n-1.5
n2.0
o2
n-1.6
o5
o0
v1
n-1.14
n2.0
o2
o2
o2
o2
n-0.6832526400000001
v0
o5
v1
n0.6000000000000001
o0
o2
n-3.92
v0
n4.508
o44
o0
o2
n-1.96
o5
o0
v0
n-1.15
n2.0
o2
n-1.2
o5
o0
v1
n-1.04
n2.0
o2
o2
o2
o2
n-0.742882485
v0
o5
v1
n0.8500000000000001
o0
o2
n-2.5
v0
n3.25
o44
o0
o2
n-1.25
o5
o0
v0
n-1.3
n2.0
o2
n-1.26
o5
o0
v1
n-1.0
n2.0
o2
o2
o2
o2
n-0.54967535
v0
o5
v1
n0.75
o0
o2
n-4.4
v0
n3.3528000000000002
o44
o0
o2
n-2.2
o5
o0
v0
n-0.762
n2.0
o2
n-0.87
o5
o0
v1
n-1.1
n2.0
o2
o2
o2
o2
n-0.6101618
v0
v1
o0
o2
n-56.0
v0
n53.76
o44
o0
o2
n-28.0
o5
o0
v0
n-0.96
n2.0
o2
n-1000.0
o5
o0
v1
n-1.062
n2.0
o2
o2
o2
o2
o2
n0.546534348
v0
o5
v1
n1.75
o0
v1
n-1.1
o0
o2
n-4.4
v0
n3.3528000000000002
o44
o0
o2
n-2.2
o5
o0
v0
n-0.762
n2.0
o2
n-0.87
o5
o0
v1
n-1.1
n2.0
o2
o2
o2
o2
o2
n1.011926412
v0
o5
v1
n1.85
o0
v1
n-1.0
o0
o2
n-2.5
v0
n3.25
o44
o0
o2
n-1.25
o5
o0
v0
n-1.3
n2.0
o2
n-1.26
o5
o0
v1
n-1.0
n2.0
o2
o2
o2
o2
o2
n1.02487896
v0
o5
v1
n1.6
o0
v1
n-1.04
o0
o2
n-3.92
v0
n4.508
o44
o0
o2
n-1.96
o5
o0
v0
n-1.15
n2.0
o2
n-1.2
o5
o0
v1
n-1.04
n2.0
o2
o2
o2
o2
o2
n610.1618
v0
o5
v1
n2.0
o0
v1
n-1.062
o0
o2
n-56.0
v0
n53.76
o44
o0
o2
n-28.0
o5
o0
v0
n-0.96
n2.0
o2
n-1000.0
o5
o0
v1
n-1.062
n2.0
o2
o2
o2
o2
o2
n-0.37746784
v0
o5
v1
n0.7
o0
v1
n-1.14
o0
o2
n-2.0
v0
n3.0
o44
o0
o16
o5
o0
v0
n-1.5
n2.0
o2
n-1.6
o5
o0
v1
n-1.14
n2.0
o2
o2
o2
o2
o2
n-578.1598799999999
v1
v0
o0
v1
n-1.061
o0
o2
n-56.2
v0
n53.952
o44
o0
o2
n-1016.0
o5
o0
v1
n-1.061
n2.0
o2
n-28.1
o5
o0
v0
n-0.96
n2.0
o2
o2
o2
o2
o2
n-5.1015292
v0
o5
v1
n1.236
o0
v1
n-1.3
o0
o2
n-2.614
v0
n2.229742
o44
o0
o2
n-1.307
o5
o0
v0
n-0.853
n2.0
o2
n-1.16
o5
o0
v1
n-1.3
n2.0
O11 0
o0
o54
5
o2
n3.392
o5
o0
o16
o3
n1
v1
n1
n0.4
o2
n-4.119
o5
o0
o16
o3
n1
v1
n1
n0.7
o2
n8.932
o5
o0
o16
o3
n1
v1
n1
n1.1
o2
n-8.525
o5
o0
o16
o3
n1
v1
n1
n1.5
o2
n3.384
o5
o0
o16
o3
n1
v1
n1
n2.1
n1.0
O12 0
o44
o2
v1
o54
6
o2
n-3.616
o5
o0
o16
o3
n1
v1
n1
n0.426
o2
n-74.91
o5
o0
o16
o3
n1
v1
n1
n2.0
o2
n197.7
o5
o0
o16
o3
n1
v1
n1
n2.4
o2
n-152.76
o5
o0
o16
o3
n1
v1
n1
n2.7
o2
n-61.062
o5
o0
o16
o3
n1
v1
n1
n7.5
o2
n-115.53
o5
o0
o16
o3
n1
v1
n1
n15.0
O13 0
n0.0
x2
0 1.00000001
1 1.0
r
b
3
3
k1
0
G0 2
0 0
1 8.52896238365
G1 1
0 0
G2 1
0 0
G3 1
1 0
G4 1
1 0
G5 2
0 0
1 0
G6 2
0 0
1 0
G7 2
0 0
1 0
G8 2
0 0
1 0
G9 2
0 0
1 0
G10 2
0 0
1 0
G11 1
1 0
G12 1
1 0
